%chk=G:\IIT-BHU\DFT_RSC_isorhamnetin\Isorhamnetin.chk
# opt freq b3lyp/6-31g geom=connectivity

Isorhamnetin.mol

0 1
 C                 -0.01772999   -0.03861409   -0.20368900
 C                  0.12892439   -1.21487120    0.45464945
 O                  1.40036671   -1.59788296    0.98534372
 C                 -1.08542084   -2.11473460    0.62986959
 O                 -0.99516152   -3.24687359    1.17179682
 C                 -2.41862235   -1.56814891    0.14041929
 C                 -3.72506693   -2.33068866    0.42434404
 O                 -3.68556024   -3.60105476    1.07971352
 C                 -4.91223465   -1.79267146    0.05829817
 C                 -4.95001015   -0.41978347   -0.63729804
 O                 -6.20506048    0.16621559   -0.99276078
 C                 -3.79473579    0.23288536   -0.91673377
 C                 -2.43807675   -0.39271171   -0.53768065
 O                 -1.22306106    0.28836350   -0.93627898
 C                  1.14060399    0.97601908   -0.18414708
 C                  2.43668747    0.65033180    0.58116031
 C                  3.45602033    1.54321015    0.59835946
 O                  4.65952498    1.24078784    1.30900515
 C                  5.76438734    1.88817826    0.67255813
 C                  3.31827117    2.88353022   -0.14740678
 O                  4.39386650    3.82569017   -0.12925962
 C                  2.17771850    3.17013415   -0.82087900
 C                  1.01938442    2.15550108   -0.84042069
 H                  2.09904337   -1.22718769    0.44125188
 H                 -2.92681350   -3.63475499    1.66688274
 H                 -5.82272646   -2.31927422    0.25475225
 H                 -6.09290184    0.71393092   -1.77316346
 H                 -3.82486140    1.18332678   -1.40729829
 H                  2.53239666   -0.28092996    1.09932177
 H                  5.60622445    2.94642410    0.67305568
 H                  6.66491179    1.66189024    1.20430002
 H                  5.84874096    1.54063145   -0.33590391
 H                  4.97955555    3.65703025   -0.87096183
 H                  2.08200975    4.10139540   -1.33904143
 H                  0.11885817    2.38179106   -1.37215869

 1 2 2.0 14 1.0 15 1.0
 2 3 1.0 4 1.0
 3 24 1.0
 4 5 2.0 6 1.0
 5
 6 7 1.0 13 2.0
 7 8 1.0 9 2.0
 8 25 1.0
 9 10 1.0 26 1.0
 10 11 1.0 12 2.0
 11 27 1.0
 12 13 1.0 28 1.0
 13 14 1.0
 14
 15 16 1.0 23 2.0
 16 17 2.0 29 1.0
 17 18 1.0 20 1.0
 18 19 1.0
 19 30 1.0 31 1.0 32 1.0
 20 21 1.0 22 2.0
 21 33 1.0
 22 23 1.0 34 1.0
 23 35 1.0
 24
 25
 26
 27
 28
 29
 30
 31
 32
 33
 34
 35

